p cnf 803 2972
1 0
2 0
3 0
4 0
5 0
6 0
7 0
8 0
9 0
10 0
-11 0
-12 0
-13 0
-14 0
-15 0
-16 0
-17 0
-18 0
-19 0
-20 0
-1 21 -22 0
1 -21 -22 0
-1 -21 22 0
1 21 22 0
-23 -22 0
1 -24 -25 0
-1 24 -25 0
25 -1 -24 0
25 1 24 0
-26 25 0
-27 28 0
-29 28 0
-30 28 0
-31 28 0
-32 28 0
-33 28 0
-34 28 0
-35 28 0
-36 28 0
-21 28 0
-24 28 0
37 0
1 -28 -38 0
-1 28 -38 0
-1 -28 38 0
1 28 38 0
-39 38 0
24 40 0
21 40 0
36 40 0
35 40 0
34 40 0
33 40 0
32 40 0
31 40 0
30 40 0
29 40 0
27 40 0
-41 0
-1 40 -42 0
1 -40 -42 0
42 -40 -1 0
1 40 42 0
-43 -42 0
24 -44 -45 0
44 -24 -45 0
-24 -44 45 0
44 24 45 0
-23 -45 0
44 -36 -46 0
36 -44 -46 0
46 -44 -36 0
46 44 36 0
-26 46 0
-27 47 0
-29 47 0
-30 47 0
-31 47 0
-32 47 0
-33 47 0
-34 47 0
-35 47 0
-36 47 0
-24 47 0
48 0
44 -47 -49 0
-44 47 -49 0
-44 -47 49 0
44 47 49 0
-39 49 0
24 50 0
36 50 0
35 50 0
34 50 0
33 50 0
32 50 0
31 50 0
30 50 0
29 50 0
27 50 0
-51 0
-44 50 -52 0
44 -50 -52 0
52 -50 -44 0
44 50 52 0
-43 -52 0
36 -53 -54 0
53 -36 -54 0
-53 -36 54 0
53 36 54 0
-23 -54 0
53 -35 -55 0
35 -53 -55 0
55 -53 -35 0
55 53 35 0
-26 55 0
-27 56 0
-29 56 0
-30 56 0
-31 56 0
-32 56 0
-33 56 0
-34 56 0
-35 56 0
-36 56 0
57 0
53 -56 -58 0
-53 56 -58 0
-53 -56 58 0
53 56 58 0
-39 58 0
36 59 0
35 59 0
34 59 0
33 59 0
32 59 0
31 59 0
30 59 0
29 59 0
27 59 0
-60 0
-53 59 -61 0
53 -59 -61 0
61 -59 -53 0
53 59 61 0
-43 -61 0
35 -62 -63 0
62 -35 -63 0
-62 -35 63 0
62 35 63 0
-23 -63 0
62 -34 -64 0
34 -62 -64 0
64 -62 -34 0
64 62 34 0
-26 64 0
-27 65 0
-29 65 0
-30 65 0
-31 65 0
-32 65 0
-33 65 0
-34 65 0
-35 65 0
66 0
62 -65 -67 0
-62 65 -67 0
-62 -65 67 0
62 65 67 0
-39 67 0
35 68 0
34 68 0
33 68 0
32 68 0
31 68 0
30 68 0
29 68 0
27 68 0
-69 0
-62 68 -70 0
62 -68 -70 0
70 -68 -62 0
62 68 70 0
-43 -70 0
34 -71 -72 0
71 -34 -72 0
-71 -34 72 0
71 34 72 0
-23 -72 0
71 -33 -73 0
33 -71 -73 0
73 -71 -33 0
73 71 33 0
-26 73 0
-27 74 0
-29 74 0
-30 74 0
-31 74 0
-32 74 0
-33 74 0
-34 74 0
75 0
71 -74 -76 0
-71 74 -76 0
-71 -74 76 0
71 74 76 0
-39 76 0
34 77 0
33 77 0
32 77 0
31 77 0
30 77 0
29 77 0
27 77 0
-78 0
-71 77 -79 0
71 -77 -79 0
79 -77 -71 0
71 77 79 0
-43 -79 0
33 -80 -81 0
80 -33 -81 0
-80 -33 81 0
80 33 81 0
-23 -81 0
80 -32 -82 0
32 -80 -82 0
82 -80 -32 0
82 80 32 0
-26 82 0
-27 83 0
-29 83 0
-30 83 0
-31 83 0
-32 83 0
-33 83 0
84 0
80 -83 -85 0
-80 83 -85 0
-80 -83 85 0
80 83 85 0
-39 85 0
33 86 0
32 86 0
31 86 0
30 86 0
29 86 0
27 86 0
-87 0
-80 86 -88 0
80 -86 -88 0
88 -86 -80 0
80 86 88 0
-43 -88 0
32 -89 -90 0
89 -32 -90 0
-89 -32 90 0
89 32 90 0
-23 -90 0
89 -31 -91 0
31 -89 -91 0
91 -89 -31 0
91 89 31 0
-26 91 0
89 -83 -92 0
-89 83 -92 0
-89 -83 92 0
89 83 92 0
-39 92 0
-89 86 -93 0
89 -86 -93 0
93 -86 -89 0
89 86 93 0
-43 -93 0
31 -94 -95 0
94 -31 -95 0
-94 -31 95 0
94 31 95 0
-23 -95 0
94 -30 -96 0
30 -94 -96 0
96 -94 -30 0
96 94 30 0
-26 96 0
94 -83 -97 0
-94 83 -97 0
-94 -83 97 0
94 83 97 0
-39 97 0
-94 86 -98 0
94 -86 -98 0
98 -86 -94 0
94 86 98 0
-43 -98 0
30 -99 -100 0
99 -30 -100 0
-99 -30 100 0
99 30 100 0
-23 -100 0
99 -29 -101 0
29 -99 -101 0
101 -99 -29 0
101 99 29 0
-26 101 0
99 -83 -102 0
-99 83 -102 0
-99 -83 102 0
99 83 102 0
-39 102 0
-99 86 -103 0
99 -86 -103 0
103 -86 -99 0
99 86 103 0
-43 -103 0
29 -104 -105 0
104 -29 -105 0
-104 -29 105 0
104 29 105 0
-23 -105 0
104 -27 -106 0
27 -104 -106 0
106 -104 -27 0
106 104 27 0
-26 106 0
104 -83 -107 0
-104 83 -107 0
-104 -83 107 0
104 83 107 0
-39 107 0
-104 86 -108 0
104 -86 -108 0
108 -86 -104 0
104 86 108 0
-43 -108 0
27 -109 -110 0
109 -27 -110 0
-109 -27 110 0
109 27 110 0
-23 -110 0
109 -33 -111 0
33 -109 -111 0
111 -109 -33 0
111 109 33 0
-26 111 0
109 -83 -112 0
-109 83 -112 0
-109 -83 112 0
109 83 112 0
-39 112 0
-109 86 -113 0
109 -86 -113 0
113 -86 -109 0
109 86 113 0
-43 -113 0
-2 114 -115 0
2 -114 -115 0
-2 -114 115 0
2 114 115 0
-23 -115 0
2 -116 -117 0
-2 116 -117 0
117 -2 -116 0
117 2 116 0
-26 117 0
-114 118 0
-116 118 0
-119 118 0
-120 118 0
-121 118 0
-122 118 0
-123 118 0
-124 118 0
125 0
2 -118 -126 0
-2 118 -126 0
-2 -118 126 0
2 118 126 0
-39 126 0
114 127 0
116 127 0
119 127 0
120 127 0
121 127 0
122 127 0
123 127 0
124 127 0
-128 0
-2 127 -129 0
2 -127 -129 0
129 -127 -2 0
2 127 129 0
-43 -129 0
-130 116 -131 0
130 -116 -131 0
-130 -116 131 0
130 116 131 0
-23 -131 0
130 -119 -132 0
-130 119 -132 0
132 -130 -119 0
132 130 119 0
-26 132 0
-116 133 0
-119 133 0
-120 133 0
-121 133 0
-122 133 0
-123 133 0
-124 133 0
134 0
130 -133 -135 0
-130 133 -135 0
-130 -133 135 0
130 133 135 0
-39 135 0
116 136 0
119 136 0
120 136 0
121 136 0
122 136 0
123 136 0
124 136 0
-137 0
-130 136 -138 0
130 -136 -138 0
138 -136 -130 0
130 136 138 0
-43 -138 0
-139 119 -140 0
139 -119 -140 0
-139 -119 140 0
139 119 140 0
-23 -140 0
139 -120 -141 0
-139 120 -141 0
141 -139 -120 0
141 139 120 0
-26 141 0
-119 142 0
-120 142 0
-121 142 0
-122 142 0
-123 142 0
-124 142 0
143 0
139 -142 -144 0
-139 142 -144 0
-139 -142 144 0
139 142 144 0
-39 144 0
119 145 0
120 145 0
121 145 0
122 145 0
123 145 0
124 145 0
-146 0
-139 145 -147 0
139 -145 -147 0
147 -145 -139 0
139 145 147 0
-43 -147 0
-148 120 -149 0
148 -120 -149 0
-148 -120 149 0
148 120 149 0
-23 -149 0
148 -121 -150 0
-148 121 -150 0
150 -148 -121 0
150 148 121 0
-26 150 0
-120 151 0
-121 151 0
-122 151 0
-123 151 0
-124 151 0
120 121 122 123 124 -151 0
148 -151 -152 0
-148 151 -152 0
-148 -151 152 0
148 151 152 0
-39 152 0
120 153 0
121 153 0
122 153 0
123 153 0
124 153 0
-154 0
-148 153 -155 0
148 -153 -155 0
155 -153 -148 0
148 153 155 0
-43 -155 0
-156 121 -157 0
156 -121 -157 0
-156 -121 157 0
156 121 157 0
-23 -157 0
156 -122 -158 0
-156 122 -158 0
158 -156 -122 0
158 156 122 0
-26 158 0
156 -151 -159 0
-156 151 -159 0
-156 -151 159 0
156 151 159 0
-39 159 0
-156 153 -160 0
156 -153 -160 0
160 -153 -156 0
156 153 160 0
-43 -160 0
-161 122 -162 0
161 -122 -162 0
-161 -122 162 0
161 122 162 0
-23 -162 0
161 -123 -163 0
-161 123 -163 0
163 -161 -123 0
163 161 123 0
-26 163 0
161 -151 -164 0
-161 151 -164 0
-161 -151 164 0
161 151 164 0
-39 164 0
-161 153 -165 0
161 -153 -165 0
165 -153 -161 0
161 153 165 0
-43 -165 0
-166 123 -167 0
166 -123 -167 0
-166 -123 167 0
166 123 167 0
-23 -167 0
166 -124 -168 0
-166 124 -168 0
168 -166 -124 0
168 166 124 0
-26 168 0
166 -151 -169 0
-166 151 -169 0
-166 -151 169 0
166 151 169 0
-39 169 0
-166 153 -170 0
166 -153 -170 0
170 -153 -166 0
166 153 170 0
-43 -170 0
-171 124 -172 0
171 -124 -172 0
-171 -124 172 0
171 124 172 0
-23 -172 0
171 -120 -173 0
-171 120 -173 0
173 -171 -120 0
173 171 120 0
-26 173 0
171 -151 -174 0
-171 151 -174 0
-171 -151 174 0
171 151 174 0
-39 174 0
-171 153 -175 0
171 -153 -175 0
175 -153 -171 0
171 153 175 0
-43 -175 0
-3 176 -177 0
3 -176 -177 0
-3 -176 177 0
3 176 177 0
-23 -177 0
3 -178 -179 0
-3 178 -179 0
179 -3 -178 0
179 3 178 0
-26 179 0
-176 180 0
-178 180 0
-181 180 0
-182 180 0
-183 180 0
-184 180 0
-185 180 0
-186 180 0
-187 180 0
-188 180 0
-189 180 0
190 0
3 -180 -191 0
-3 180 -191 0
-3 -180 191 0
3 180 191 0
-39 191 0
176 192 0
178 192 0
181 192 0
182 192 0
183 192 0
184 192 0
185 192 0
186 192 0
187 192 0
188 192 0
189 192 0
-193 0
-3 192 -194 0
3 -192 -194 0
194 -192 -3 0
3 192 194 0
-43 -194 0
-195 178 -196 0
195 -178 -196 0
-195 -178 196 0
195 178 196 0
-23 -196 0
195 -181 -197 0
-195 181 -197 0
197 -195 -181 0
197 195 181 0
-26 197 0
-178 198 0
-181 198 0
-182 198 0
-183 198 0
-184 198 0
-185 198 0
-186 198 0
-187 198 0
-188 198 0
-189 198 0
199 0
195 -198 -200 0
-195 198 -200 0
-195 -198 200 0
195 198 200 0
-39 200 0
178 201 0
181 201 0
182 201 0
183 201 0
184 201 0
185 201 0
186 201 0
187 201 0
188 201 0
189 201 0
-202 0
-195 201 -203 0
195 -201 -203 0
203 -201 -195 0
195 201 203 0
-43 -203 0
-204 181 -205 0
204 -181 -205 0
-204 -181 205 0
204 181 205 0
-23 -205 0
204 -182 -206 0
-204 182 -206 0
206 -204 -182 0
206 204 182 0
-26 206 0
-181 207 0
-182 207 0
-183 207 0
-184 207 0
-185 207 0
-186 207 0
-187 207 0
-188 207 0
-189 207 0
208 0
204 -207 -209 0
-204 207 -209 0
-204 -207 209 0
204 207 209 0
-39 209 0
181 210 0
182 210 0
183 210 0
184 210 0
185 210 0
186 210 0
187 210 0
188 210 0
189 210 0
-211 0
-204 210 -212 0
204 -210 -212 0
212 -210 -204 0
204 210 212 0
-43 -212 0
-213 182 -214 0
213 -182 -214 0
-213 -182 214 0
213 182 214 0
-23 -214 0
213 -183 -215 0
-213 183 -215 0
215 -213 -183 0
215 213 183 0
-26 215 0
-182 216 0
-183 216 0
-184 216 0
-185 216 0
-186 216 0
-187 216 0
-188 216 0
-189 216 0
217 0
213 -216 -218 0
-213 216 -218 0
-213 -216 218 0
213 216 218 0
-39 218 0
182 219 0
183 219 0
184 219 0
185 219 0
186 219 0
187 219 0
188 219 0
189 219 0
-220 0
-213 219 -221 0
213 -219 -221 0
221 -219 -213 0
213 219 221 0
-43 -221 0
-222 183 -223 0
222 -183 -223 0
-222 -183 223 0
222 183 223 0
-23 -223 0
222 -184 -224 0
-222 184 -224 0
224 -222 -184 0
224 222 184 0
-26 224 0
-183 225 0
-184 225 0
-185 225 0
-186 225 0
-187 225 0
-188 225 0
-189 225 0
226 0
222 -225 -227 0
-222 225 -227 0
-222 -225 227 0
222 225 227 0
-39 227 0
183 228 0
184 228 0
185 228 0
186 228 0
187 228 0
188 228 0
189 228 0
-229 0
-222 228 -230 0
222 -228 -230 0
230 -228 -222 0
222 228 230 0
-43 -230 0
-231 184 -232 0
231 -184 -232 0
-231 -184 232 0
231 184 232 0
-23 -232 0
231 -185 -233 0
-231 185 -233 0
233 -231 -185 0
233 231 185 0
-26 233 0
-184 234 0
-185 234 0
-186 234 0
-187 234 0
-188 234 0
-189 234 0
235 0
231 -234 -236 0
-231 234 -236 0
-231 -234 236 0
231 234 236 0
-39 236 0
184 237 0
185 237 0
186 237 0
187 237 0
188 237 0
189 237 0
-238 0
-231 237 -239 0
231 -237 -239 0
239 -237 -231 0
231 237 239 0
-43 -239 0
-240 185 -241 0
240 -185 -241 0
-240 -185 241 0
240 185 241 0
-23 -241 0
240 -186 -242 0
-240 186 -242 0
242 -240 -186 0
242 240 186 0
-26 242 0
240 -234 -243 0
-240 234 -243 0
-240 -234 243 0
240 234 243 0
-39 243 0
-240 237 -244 0
240 -237 -244 0
244 -237 -240 0
240 237 244 0
-43 -244 0
-245 186 -246 0
245 -186 -246 0
-245 -186 246 0
245 186 246 0
-23 -246 0
245 -187 -247 0
-245 187 -247 0
247 -245 -187 0
247 245 187 0
-26 247 0
245 -234 -248 0
-245 234 -248 0
-245 -234 248 0
245 234 248 0
-39 248 0
-245 237 -249 0
245 -237 -249 0
249 -237 -245 0
245 237 249 0
-43 -249 0
-250 187 -251 0
250 -187 -251 0
-250 -187 251 0
250 187 251 0
-23 -251 0
250 -188 -252 0
-250 188 -252 0
252 -250 -188 0
252 250 188 0
-26 252 0
250 -234 -253 0
-250 234 -253 0
-250 -234 253 0
250 234 253 0
-39 253 0
-250 237 -254 0
250 -237 -254 0
254 -237 -250 0
250 237 254 0
-43 -254 0
-255 188 -256 0
255 -188 -256 0
-255 -188 256 0
255 188 256 0
-23 -256 0
255 -189 -257 0
-255 189 -257 0
257 -255 -189 0
257 255 189 0
-26 257 0
255 -234 -258 0
-255 234 -258 0
-255 -234 258 0
255 234 258 0
-39 258 0
-255 237 -259 0
255 -237 -259 0
259 -237 -255 0
255 237 259 0
-43 -259 0
-260 189 -261 0
260 -189 -261 0
-260 -189 261 0
260 189 261 0
-23 -261 0
260 -184 -262 0
-260 184 -262 0
262 -260 -184 0
262 260 184 0
-26 262 0
260 -234 -263 0
-260 234 -263 0
-260 -234 263 0
260 234 263 0
-39 263 0
-260 237 -264 0
260 -237 -264 0
264 -237 -260 0
260 237 264 0
-43 -264 0
-4 265 -266 0
4 -265 -266 0
-4 -265 266 0
4 265 266 0
-23 -266 0
4 -267 -268 0
-4 267 -268 0
268 -4 -267 0
268 4 267 0
-26 268 0
-265 269 0
-267 269 0
-270 269 0
-271 269 0
-272 269 0
-273 269 0
-274 269 0
-275 269 0
-276 269 0
-277 269 0
-278 269 0
279 0
4 -269 -280 0
-4 269 -280 0
-4 -269 280 0
4 269 280 0
-39 280 0
265 281 0
267 281 0
270 281 0
271 281 0
272 281 0
273 281 0
274 281 0
275 281 0
276 281 0
277 281 0
278 281 0
-282 0
-4 281 -283 0
4 -281 -283 0
283 -281 -4 0
4 281 283 0
-43 -283 0
-284 267 -285 0
284 -267 -285 0
-284 -267 285 0
284 267 285 0
-23 -285 0
284 -270 -286 0
-284 270 -286 0
286 -284 -270 0
286 284 270 0
-26 286 0
-267 287 0
-270 287 0
-271 287 0
-272 287 0
-273 287 0
-274 287 0
-275 287 0
-276 287 0
-277 287 0
-278 287 0
288 0
284 -287 -289 0
-284 287 -289 0
-284 -287 289 0
284 287 289 0
-39 289 0
267 290 0
270 290 0
271 290 0
272 290 0
273 290 0
274 290 0
275 290 0
276 290 0
277 290 0
278 290 0
-291 0
-284 290 -292 0
284 -290 -292 0
292 -290 -284 0
284 290 292 0
-43 -292 0
-293 270 -294 0
293 -270 -294 0
-293 -270 294 0
293 270 294 0
-23 -294 0
293 -271 -295 0
-293 271 -295 0
295 -293 -271 0
295 293 271 0
-26 295 0
-270 296 0
-271 296 0
-272 296 0
-273 296 0
-274 296 0
-275 296 0
-276 296 0
-277 296 0
-278 296 0
297 0
293 -296 -298 0
-293 296 -298 0
-293 -296 298 0
293 296 298 0
-39 298 0
270 299 0
271 299 0
272 299 0
273 299 0
274 299 0
275 299 0
276 299 0
277 299 0
278 299 0
-300 0
-293 299 -301 0
293 -299 -301 0
301 -299 -293 0
293 299 301 0
-43 -301 0
-302 271 -303 0
302 -271 -303 0
-302 -271 303 0
302 271 303 0
-23 -303 0
302 -272 -304 0
-302 272 -304 0
304 -302 -272 0
304 302 272 0
-26 304 0
-271 305 0
-272 305 0
-273 305 0
-274 305 0
-275 305 0
-276 305 0
-277 305 0
-278 305 0
306 0
302 -305 -307 0
-302 305 -307 0
-302 -305 307 0
302 305 307 0
-39 307 0
271 308 0
272 308 0
273 308 0
274 308 0
275 308 0
276 308 0
277 308 0
278 308 0
-309 0
-302 308 -310 0
302 -308 -310 0
310 -308 -302 0
302 308 310 0
-43 -310 0
-311 272 -312 0
311 -272 -312 0
-311 -272 312 0
311 272 312 0
-23 -312 0
311 -273 -313 0
-311 273 -313 0
313 -311 -273 0
313 311 273 0
-26 313 0
-272 314 0
-273 314 0
-274 314 0
-275 314 0
-276 314 0
-277 314 0
-278 314 0
315 0
311 -314 -316 0
-311 314 -316 0
-311 -314 316 0
311 314 316 0
-39 316 0
272 317 0
273 317 0
274 317 0
275 317 0
276 317 0
277 317 0
278 317 0
-318 0
-311 317 -319 0
311 -317 -319 0
319 -317 -311 0
311 317 319 0
-43 -319 0
-320 273 -321 0
320 -273 -321 0
-320 -273 321 0
320 273 321 0
-23 -321 0
320 -274 -322 0
-320 274 -322 0
322 -320 -274 0
322 320 274 0
-26 322 0
-273 323 0
-274 323 0
-275 323 0
-276 323 0
-277 323 0
-278 323 0
324 0
320 -323 -325 0
-320 323 -325 0
-320 -323 325 0
320 323 325 0
-39 325 0
273 326 0
274 326 0
275 326 0
276 326 0
277 326 0
278 326 0
-327 0
-320 326 -328 0
320 -326 -328 0
328 -326 -320 0
320 326 328 0
-43 -328 0
-329 274 -330 0
329 -274 -330 0
-329 -274 330 0
329 274 330 0
-23 -330 0
329 -275 -331 0
-329 275 -331 0
331 -329 -275 0
331 329 275 0
-26 331 0
329 -323 -332 0
-329 323 -332 0
-329 -323 332 0
329 323 332 0
-39 332 0
-329 326 -333 0
329 -326 -333 0
333 -326 -329 0
329 326 333 0
-43 -333 0
-334 275 -335 0
334 -275 -335 0
-334 -275 335 0
334 275 335 0
-23 -335 0
334 -276 -336 0
-334 276 -336 0
336 -334 -276 0
336 334 276 0
-26 336 0
334 -323 -337 0
-334 323 -337 0
-334 -323 337 0
334 323 337 0
-39 337 0
-334 326 -338 0
334 -326 -338 0
338 -326 -334 0
334 326 338 0
-43 -338 0
-339 276 -340 0
339 -276 -340 0
-339 -276 340 0
339 276 340 0
-23 -340 0
339 -277 -341 0
-339 277 -341 0
341 -339 -277 0
341 339 277 0
-26 341 0
339 -323 -342 0
-339 323 -342 0
-339 -323 342 0
339 323 342 0
-39 342 0
-339 326 -343 0
339 -326 -343 0
343 -326 -339 0
339 326 343 0
-43 -343 0
-344 277 -345 0
344 -277 -345 0
-344 -277 345 0
344 277 345 0
-23 -345 0
344 -278 -346 0
-344 278 -346 0
346 -344 -278 0
346 344 278 0
-26 346 0
344 -323 -347 0
-344 323 -347 0
-344 -323 347 0
344 323 347 0
-39 347 0
-344 326 -348 0
344 -326 -348 0
348 -326 -344 0
344 326 348 0
-43 -348 0
-349 278 -350 0
349 -278 -350 0
-349 -278 350 0
349 278 350 0
-23 -350 0
349 -273 -351 0
-349 273 -351 0
351 -349 -273 0
351 349 273 0
-26 351 0
349 -323 -352 0
-349 323 -352 0
-349 -323 352 0
349 323 352 0
-39 352 0
-349 326 -353 0
349 -326 -353 0
353 -326 -349 0
349 326 353 0
-43 -353 0
-5 354 -355 0
5 -354 -355 0
-5 -354 355 0
5 354 355 0
-23 -355 0
5 -356 -357 0
-5 356 -357 0
357 -5 -356 0
357 5 356 0
-26 357 0
-354 358 0
-356 358 0
-359 358 0
-360 358 0
-361 358 0
-362 358 0
-363 358 0
-364 358 0
-365 358 0
366 0
5 -358 -367 0
-5 358 -367 0
-5 -358 367 0
5 358 367 0
-39 367 0
354 368 0
356 368 0
359 368 0
360 368 0
361 368 0
362 368 0
363 368 0
364 368 0
365 368 0
-369 0
-5 368 -370 0
5 -368 -370 0
370 -368 -5 0
5 368 370 0
-43 -370 0
-371 356 -372 0
371 -356 -372 0
-371 -356 372 0
371 356 372 0
-23 -372 0
371 -359 -373 0
-371 359 -373 0
373 -371 -359 0
373 371 359 0
-26 373 0
-356 374 0
-359 374 0
-360 374 0
-361 374 0
-362 374 0
-363 374 0
-364 374 0
-365 374 0
375 0
371 -374 -376 0
-371 374 -376 0
-371 -374 376 0
371 374 376 0
-39 376 0
356 377 0
359 377 0
360 377 0
361 377 0
362 377 0
363 377 0
364 377 0
365 377 0
-378 0
-371 377 -379 0
371 -377 -379 0
379 -377 -371 0
371 377 379 0
-43 -379 0
-380 359 -381 0
380 -359 -381 0
-380 -359 381 0
380 359 381 0
-23 -381 0
380 -360 -382 0
-380 360 -382 0
382 -380 -360 0
382 380 360 0
-26 382 0
-359 383 0
-360 383 0
-361 383 0
-362 383 0
-363 383 0
-364 383 0
-365 383 0
384 0
380 -383 -385 0
-380 383 -385 0
-380 -383 385 0
380 383 385 0
-39 385 0
359 386 0
360 386 0
361 386 0
362 386 0
363 386 0
364 386 0
365 386 0
-387 0
-380 386 -388 0
380 -386 -388 0
388 -386 -380 0
380 386 388 0
-43 -388 0
-389 360 -390 0
389 -360 -390 0
-389 -360 390 0
389 360 390 0
-23 -390 0
389 -361 -391 0
-389 361 -391 0
391 -389 -361 0
391 389 361 0
-26 391 0
-360 392 0
-361 392 0
-362 392 0
-363 392 0
-364 392 0
-365 392 0
393 0
389 -392 -394 0
-389 392 -394 0
-389 -392 394 0
389 392 394 0
-39 394 0
360 395 0
361 395 0
362 395 0
363 395 0
364 395 0
365 395 0
-396 0
-389 395 -397 0
389 -395 -397 0
397 -395 -389 0
389 395 397 0
-43 -397 0
-398 361 -399 0
398 -361 -399 0
-398 -361 399 0
398 361 399 0
-23 -399 0
398 -362 -400 0
-398 362 -400 0
400 -398 -362 0
400 398 362 0
-26 400 0
-361 401 0
-362 401 0
-363 401 0
-364 401 0
-365 401 0
361 362 363 364 365 -401 0
398 -401 -402 0
-398 401 -402 0
-398 -401 402 0
398 401 402 0
-39 402 0
361 403 0
362 403 0
363 403 0
364 403 0
365 403 0
-404 0
-398 403 -405 0
398 -403 -405 0
405 -403 -398 0
398 403 405 0
-43 -405 0
-406 362 -407 0
406 -362 -407 0
-406 -362 407 0
406 362 407 0
-23 -407 0
406 -363 -408 0
-406 363 -408 0
408 -406 -363 0
408 406 363 0
-26 408 0
406 -401 -409 0
-406 401 -409 0
-406 -401 409 0
406 401 409 0
-39 409 0
-406 403 -410 0
406 -403 -410 0
410 -403 -406 0
406 403 410 0
-43 -410 0
-411 363 -412 0
411 -363 -412 0
-411 -363 412 0
411 363 412 0
-23 -412 0
411 -364 -413 0
-411 364 -413 0
413 -411 -364 0
413 411 364 0
-26 413 0
411 -401 -414 0
-411 401 -414 0
-411 -401 414 0
411 401 414 0
-39 414 0
-411 403 -415 0
411 -403 -415 0
415 -403 -411 0
411 403 415 0
-43 -415 0
-416 364 -417 0
416 -364 -417 0
-416 -364 417 0
416 364 417 0
-23 -417 0
416 -365 -418 0
-416 365 -418 0
418 -416 -365 0
418 416 365 0
-26 418 0
416 -401 -419 0
-416 401 -419 0
-416 -401 419 0
416 401 419 0
-39 419 0
-416 403 -420 0
416 -403 -420 0
420 -403 -416 0
416 403 420 0
-43 -420 0
-421 365 -422 0
421 -365 -422 0
-421 -365 422 0
421 365 422 0
-23 -422 0
421 -361 -423 0
-421 361 -423 0
423 -421 -361 0
423 421 361 0
-26 423 0
421 -401 -424 0
-421 401 -424 0
-421 -401 424 0
421 401 424 0
-39 424 0
-421 403 -425 0
421 -403 -425 0
425 -403 -421 0
421 403 425 0
-43 -425 0
-6 426 -427 0
6 -426 -427 0
-6 -426 427 0
6 426 427 0
-23 -427 0
6 -428 -429 0
-6 428 -429 0
429 -6 -428 0
429 6 428 0
-26 429 0
-426 430 0
-428 430 0
-431 430 0
-432 430 0
426 428 431 432 -430 0
6 -430 -433 0
-6 430 -433 0
-6 -430 433 0
6 430 433 0
-39 433 0
426 434 0
428 434 0
431 434 0
432 434 0
-435 0
-6 434 -436 0
6 -434 -436 0
436 -434 -6 0
6 434 436 0
-43 -436 0
-437 428 -438 0
437 -428 -438 0
-437 -428 438 0
437 428 438 0
-23 -438 0
437 -431 -439 0
-437 431 -439 0
439 -437 -431 0
439 437 431 0
-26 439 0
-428 440 0
-431 440 0
-432 440 0
428 431 432 -440 0
437 -440 -441 0
-437 440 -441 0
-437 -440 441 0
437 440 441 0
-39 441 0
428 442 0
431 442 0
432 442 0
-428 -431 -432 -442 0
-437 442 -443 0
437 -442 -443 0
443 -442 -437 0
437 442 443 0
-43 -443 0
-444 431 -445 0
444 -431 -445 0
-444 -431 445 0
444 431 445 0
-23 -445 0
444 -432 -446 0
-444 432 -446 0
446 -444 -432 0
446 444 432 0
-26 446 0
-431 447 0
-432 447 0
431 432 -447 0
444 -447 -448 0
-444 447 -448 0
-444 -447 448 0
444 447 448 0
-39 448 0
431 449 0
432 449 0
-431 -432 -449 0
-444 449 -450 0
444 -449 -450 0
450 -449 -444 0
444 449 450 0
-43 -450 0
-451 432 -452 0
451 -432 -452 0
-451 -432 452 0
451 432 452 0
-23 -452 0
451 -432 -453 0
-451 432 -453 0
453 -451 -432 0
453 451 432 0
-26 453 0
-39 453 0
-43 453 0
-7 454 -455 0
7 -454 -455 0
-7 -454 455 0
7 454 455 0
-23 -455 0
7 -456 -457 0
-7 456 -457 0
457 -7 -456 0
457 7 456 0
-26 457 0
-454 458 0
-456 458 0
-459 458 0
-460 458 0
-461 458 0
-462 458 0
-463 458 0
-464 458 0
-465 458 0
466 0
7 -458 -467 0
-7 458 -467 0
-7 -458 467 0
7 458 467 0
-39 467 0
454 468 0
456 468 0
459 468 0
460 468 0
461 468 0
462 468 0
463 468 0
464 468 0
465 468 0
-469 0
-7 468 -470 0
7 -468 -470 0
470 -468 -7 0
7 468 470 0
-43 -470 0
-471 456 -472 0
471 -456 -472 0
-471 -456 472 0
471 456 472 0
-23 -472 0
471 -459 -473 0
-471 459 -473 0
473 -471 -459 0
473 471 459 0
-26 473 0
-456 474 0
-459 474 0
-460 474 0
-461 474 0
-462 474 0
-463 474 0
-464 474 0
-465 474 0
475 0
471 -474 -476 0
-471 474 -476 0
-471 -474 476 0
471 474 476 0
-39 476 0
456 477 0
459 477 0
460 477 0
461 477 0
462 477 0
463 477 0
464 477 0
465 477 0
-478 0
-471 477 -479 0
471 -477 -479 0
479 -477 -471 0
471 477 479 0
-43 -479 0
-480 459 -481 0
480 -459 -481 0
-480 -459 481 0
480 459 481 0
-23 -481 0
480 -460 -482 0
-480 460 -482 0
482 -480 -460 0
482 480 460 0
-26 482 0
-459 483 0
-460 483 0
-461 483 0
-462 483 0
-463 483 0
-464 483 0
-465 483 0
484 0
480 -483 -485 0
-480 483 -485 0
-480 -483 485 0
480 483 485 0
-39 485 0
459 486 0
460 486 0
461 486 0
462 486 0
463 486 0
464 486 0
465 486 0
-487 0
-480 486 -488 0
480 -486 -488 0
488 -486 -480 0
480 486 488 0
-43 -488 0
-489 460 -490 0
489 -460 -490 0
-489 -460 490 0
489 460 490 0
-23 -490 0
489 -461 -491 0
-489 461 -491 0
491 -489 -461 0
491 489 461 0
-26 491 0
-460 492 0
-461 492 0
-462 492 0
-463 492 0
-464 492 0
-465 492 0
493 0
489 -492 -494 0
-489 492 -494 0
-489 -492 494 0
489 492 494 0
-39 494 0
460 495 0
461 495 0
462 495 0
463 495 0
464 495 0
465 495 0
-496 0
-489 495 -497 0
489 -495 -497 0
497 -495 -489 0
489 495 497 0
-43 -497 0
-498 461 -499 0
498 -461 -499 0
-498 -461 499 0
498 461 499 0
-23 -499 0
498 -462 -500 0
-498 462 -500 0
500 -498 -462 0
500 498 462 0
-26 500 0
-461 501 0
-462 501 0
-463 501 0
-464 501 0
-465 501 0
461 462 463 464 465 -501 0
498 -501 -502 0
-498 501 -502 0
-498 -501 502 0
498 501 502 0
-39 502 0
461 503 0
462 503 0
463 503 0
464 503 0
465 503 0
-504 0
-498 503 -505 0
498 -503 -505 0
505 -503 -498 0
498 503 505 0
-43 -505 0
-506 462 -507 0
506 -462 -507 0
-506 -462 507 0
506 462 507 0
-23 -507 0
506 -463 -508 0
-506 463 -508 0
508 -506 -463 0
508 506 463 0
-26 508 0
506 -501 -509 0
-506 501 -509 0
-506 -501 509 0
506 501 509 0
-39 509 0
-506 503 -510 0
506 -503 -510 0
510 -503 -506 0
506 503 510 0
-43 -510 0
-511 463 -512 0
511 -463 -512 0
-511 -463 512 0
511 463 512 0
-23 -512 0
511 -464 -513 0
-511 464 -513 0
513 -511 -464 0
513 511 464 0
-26 513 0
511 -501 -514 0
-511 501 -514 0
-511 -501 514 0
511 501 514 0
-39 514 0
-511 503 -515 0
511 -503 -515 0
515 -503 -511 0
511 503 515 0
-43 -515 0
-516 464 -517 0
516 -464 -517 0
-516 -464 517 0
516 464 517 0
-23 -517 0
516 -465 -518 0
-516 465 -518 0
518 -516 -465 0
518 516 465 0
-26 518 0
516 -501 -519 0
-516 501 -519 0
-516 -501 519 0
516 501 519 0
-39 519 0
-516 503 -520 0
516 -503 -520 0
520 -503 -516 0
516 503 520 0
-43 -520 0
-521 465 -522 0
521 -465 -522 0
-521 -465 522 0
521 465 522 0
-23 -522 0
521 -461 -523 0
-521 461 -523 0
523 -521 -461 0
523 521 461 0
-26 523 0
521 -501 -524 0
-521 501 -524 0
-521 -501 524 0
521 501 524 0
-39 524 0
-521 503 -525 0
521 -503 -525 0
525 -503 -521 0
521 503 525 0
-43 -525 0
-8 526 -527 0
8 -526 -527 0
-8 -526 527 0
8 526 527 0
-23 -527 0
8 -528 -529 0
-8 528 -529 0
529 -8 -528 0
529 8 528 0
-26 529 0
-526 530 0
-528 530 0
-531 530 0
-532 530 0
-533 530 0
-534 530 0
-535 530 0
-536 530 0
-537 530 0
-538 530 0
539 0
8 -530 -540 0
-8 530 -540 0
-8 -530 540 0
8 530 540 0
-39 540 0
526 541 0
528 541 0
531 541 0
532 541 0
533 541 0
534 541 0
535 541 0
536 541 0
537 541 0
538 541 0
-542 0
-8 541 -543 0
8 -541 -543 0
543 -541 -8 0
8 541 543 0
-43 -543 0
-544 528 -545 0
544 -528 -545 0
-544 -528 545 0
544 528 545 0
-23 -545 0
544 -531 -546 0
-544 531 -546 0
546 -544 -531 0
546 544 531 0
-26 546 0
-528 547 0
-531 547 0
-532 547 0
-533 547 0
-534 547 0
-535 547 0
-536 547 0
-537 547 0
-538 547 0
548 0
544 -547 -549 0
-544 547 -549 0
-544 -547 549 0
544 547 549 0
-39 549 0
528 550 0
531 550 0
532 550 0
533 550 0
534 550 0
535 550 0
536 550 0
537 550 0
538 550 0
-551 0
-544 550 -552 0
544 -550 -552 0
552 -550 -544 0
544 550 552 0
-43 -552 0
-553 531 -554 0
553 -531 -554 0
-553 -531 554 0
553 531 554 0
-23 -554 0
553 -532 -555 0
-553 532 -555 0
555 -553 -532 0
555 553 532 0
-26 555 0
-531 556 0
-532 556 0
-533 556 0
-534 556 0
-535 556 0
-536 556 0
-537 556 0
-538 556 0
557 0
553 -556 -558 0
-553 556 -558 0
-553 -556 558 0
553 556 558 0
-39 558 0
531 559 0
532 559 0
533 559 0
534 559 0
535 559 0
536 559 0
537 559 0
538 559 0
-560 0
-553 559 -561 0
553 -559 -561 0
561 -559 -553 0
553 559 561 0
-43 -561 0
-562 532 -563 0
562 -532 -563 0
-562 -532 563 0
562 532 563 0
-23 -563 0
562 -533 -564 0
-562 533 -564 0
564 -562 -533 0
564 562 533 0
-26 564 0
-532 565 0
-533 565 0
-534 565 0
-535 565 0
-536 565 0
-537 565 0
-538 565 0
566 0
562 -565 -567 0
-562 565 -567 0
-562 -565 567 0
562 565 567 0
-39 567 0
532 568 0
533 568 0
534 568 0
535 568 0
536 568 0
537 568 0
538 568 0
-569 0
-562 568 -570 0
562 -568 -570 0
570 -568 -562 0
562 568 570 0
-43 -570 0
-571 533 -572 0
571 -533 -572 0
-571 -533 572 0
571 533 572 0
-23 -572 0
571 -534 -573 0
-571 534 -573 0
573 -571 -534 0
573 571 534 0
-26 573 0
-533 574 0
-534 574 0
-535 574 0
-536 574 0
-537 574 0
-538 574 0
575 0
571 -574 -576 0
-571 574 -576 0
-571 -574 576 0
571 574 576 0
-39 576 0
533 577 0
534 577 0
535 577 0
536 577 0
537 577 0
538 577 0
-578 0
-571 577 -579 0
571 -577 -579 0
579 -577 -571 0
571 577 579 0
-43 -579 0
-580 534 -581 0
580 -534 -581 0
-580 -534 581 0
580 534 581 0
-23 -581 0
580 -535 -582 0
-580 535 -582 0
582 -580 -535 0
582 580 535 0
-26 582 0
-534 583 0
-535 583 0
-536 583 0
-537 583 0
-538 583 0
534 535 536 537 538 -583 0
580 -583 -584 0
-580 583 -584 0
-580 -583 584 0
580 583 584 0
-39 584 0
534 585 0
535 585 0
536 585 0
537 585 0
538 585 0
-586 0
-580 585 -587 0
580 -585 -587 0
587 -585 -580 0
580 585 587 0
-43 -587 0
-588 535 -589 0
588 -535 -589 0
-588 -535 589 0
588 535 589 0
-23 -589 0
588 -536 -590 0
-588 536 -590 0
590 -588 -536 0
590 588 536 0
-26 590 0
-535 591 0
-536 591 0
-537 591 0
-538 591 0
535 536 537 538 -591 0
588 -591 -592 0
-588 591 -592 0
-588 -591 592 0
588 591 592 0
-39 592 0
535 593 0
536 593 0
537 593 0
538 593 0
-594 0
-588 593 -595 0
588 -593 -595 0
595 -593 -588 0
588 593 595 0
-43 -595 0
-596 536 -597 0
596 -536 -597 0
-596 -536 597 0
596 536 597 0
-23 -597 0
596 -537 -598 0
-596 537 -598 0
598 -596 -537 0
598 596 537 0
-26 598 0
596 -591 -599 0
-596 591 -599 0
-596 -591 599 0
596 591 599 0
-39 599 0
-596 593 -600 0
596 -593 -600 0
600 -593 -596 0
596 593 600 0
-43 -600 0
-601 537 -602 0
601 -537 -602 0
-601 -537 602 0
601 537 602 0
-23 -602 0
601 -538 -603 0
-601 538 -603 0
603 -601 -538 0
603 601 538 0
-26 603 0
601 -591 -604 0
-601 591 -604 0
-601 -591 604 0
601 591 604 0
-39 604 0
-601 593 -605 0
601 -593 -605 0
605 -593 -601 0
601 593 605 0
-43 -605 0
-606 538 -607 0
606 -538 -607 0
-606 -538 607 0
606 538 607 0
-23 -607 0
606 -535 -608 0
-606 535 -608 0
608 -606 -535 0
608 606 535 0
-26 608 0
606 -591 -609 0
-606 591 -609 0
-606 -591 609 0
606 591 609 0
-39 609 0
-606 593 -610 0
606 -593 -610 0
610 -593 -606 0
606 593 610 0
-43 -610 0
-9 611 -612 0
9 -611 -612 0
-9 -611 612 0
9 611 612 0
-23 -612 0
9 -613 -614 0
-9 613 -614 0
614 -9 -613 0
614 9 613 0
-26 614 0
-611 615 0
-613 615 0
-616 615 0
-617 615 0
-618 615 0
-619 615 0
-620 615 0
-621 615 0
-622 615 0
-623 615 0
-624 615 0
625 0
9 -615 -626 0
-9 615 -626 0
-9 -615 626 0
9 615 626 0
-39 626 0
611 627 0
613 627 0
616 627 0
617 627 0
618 627 0
619 627 0
620 627 0
621 627 0
622 627 0
623 627 0
624 627 0
-628 0
-9 627 -629 0
9 -627 -629 0
629 -627 -9 0
9 627 629 0
-43 -629 0
-630 613 -631 0
630 -613 -631 0
-630 -613 631 0
630 613 631 0
-23 -631 0
630 -616 -632 0
-630 616 -632 0
632 -630 -616 0
632 630 616 0
-26 632 0
-613 633 0
-616 633 0
-617 633 0
-618 633 0
-619 633 0
-620 633 0
-621 633 0
-622 633 0
-623 633 0
-624 633 0
634 0
630 -633 -635 0
-630 633 -635 0
-630 -633 635 0
630 633 635 0
-39 635 0
613 636 0
616 636 0
617 636 0
618 636 0
619 636 0
620 636 0
621 636 0
622 636 0
623 636 0
624 636 0
-637 0
-630 636 -638 0
630 -636 -638 0
638 -636 -630 0
630 636 638 0
-43 -638 0
-639 616 -640 0
639 -616 -640 0
-639 -616 640 0
639 616 640 0
-23 -640 0
639 -617 -641 0
-639 617 -641 0
641 -639 -617 0
641 639 617 0
-26 641 0
-616 642 0
-617 642 0
-618 642 0
-619 642 0
-620 642 0
-621 642 0
-622 642 0
-623 642 0
-624 642 0
643 0
639 -642 -644 0
-639 642 -644 0
-639 -642 644 0
639 642 644 0
-39 644 0
616 645 0
617 645 0
618 645 0
619 645 0
620 645 0
621 645 0
622 645 0
623 645 0
624 645 0
-646 0
-639 645 -647 0
639 -645 -647 0
647 -645 -639 0
639 645 647 0
-43 -647 0
-648 617 -649 0
648 -617 -649 0
-648 -617 649 0
648 617 649 0
-23 -649 0
648 -618 -650 0
-648 618 -650 0
650 -648 -618 0
650 648 618 0
-26 650 0
-617 651 0
-618 651 0
-619 651 0
-620 651 0
-621 651 0
-622 651 0
-623 651 0
-624 651 0
652 0
648 -651 -653 0
-648 651 -653 0
-648 -651 653 0
648 651 653 0
-39 653 0
617 654 0
618 654 0
619 654 0
620 654 0
621 654 0
622 654 0
623 654 0
624 654 0
-655 0
-648 654 -656 0
648 -654 -656 0
656 -654 -648 0
648 654 656 0
-43 -656 0
-657 618 -658 0
657 -618 -658 0
-657 -618 658 0
657 618 658 0
-23 -658 0
657 -619 -659 0
-657 619 -659 0
659 -657 -619 0
659 657 619 0
-26 659 0
-618 660 0
-619 660 0
-620 660 0
-621 660 0
-622 660 0
-623 660 0
-624 660 0
661 0
657 -660 -662 0
-657 660 -662 0
-657 -660 662 0
657 660 662 0
-39 662 0
618 663 0
619 663 0
620 663 0
621 663 0
622 663 0
623 663 0
624 663 0
-664 0
-657 663 -665 0
657 -663 -665 0
665 -663 -657 0
657 663 665 0
-43 -665 0
-666 619 -667 0
666 -619 -667 0
-666 -619 667 0
666 619 667 0
-23 -667 0
666 -620 -668 0
-666 620 -668 0
668 -666 -620 0
668 666 620 0
-26 668 0
-619 669 0
-620 669 0
-621 669 0
-622 669 0
-623 669 0
-624 669 0
670 0
666 -669 -671 0
-666 669 -671 0
-666 -669 671 0
666 669 671 0
-39 671 0
619 672 0
620 672 0
621 672 0
622 672 0
623 672 0
624 672 0
-673 0
-666 672 -674 0
666 -672 -674 0
674 -672 -666 0
666 672 674 0
-43 -674 0
-675 620 -676 0
675 -620 -676 0
-675 -620 676 0
675 620 676 0
-23 -676 0
675 -621 -677 0
-675 621 -677 0
677 -675 -621 0
677 675 621 0
-26 677 0
675 -669 -678 0
-675 669 -678 0
-675 -669 678 0
675 669 678 0
-39 678 0
-675 672 -679 0
675 -672 -679 0
679 -672 -675 0
675 672 679 0
-43 -679 0
-680 621 -681 0
680 -621 -681 0
-680 -621 681 0
680 621 681 0
-23 -681 0
680 -622 -682 0
-680 622 -682 0
682 -680 -622 0
682 680 622 0
-26 682 0
680 -669 -683 0
-680 669 -683 0
-680 -669 683 0
680 669 683 0
-39 683 0
-680 672 -684 0
680 -672 -684 0
684 -672 -680 0
680 672 684 0
-43 -684 0
-685 622 -686 0
685 -622 -686 0
-685 -622 686 0
685 622 686 0
-23 -686 0
685 -623 -687 0
-685 623 -687 0
687 -685 -623 0
687 685 623 0
-26 687 0
685 -669 -688 0
-685 669 -688 0
-685 -669 688 0
685 669 688 0
-39 688 0
-685 672 -689 0
685 -672 -689 0
689 -672 -685 0
685 672 689 0
-43 -689 0
-690 623 -691 0
690 -623 -691 0
-690 -623 691 0
690 623 691 0
-23 -691 0
690 -624 -692 0
-690 624 -692 0
692 -690 -624 0
692 690 624 0
-26 692 0
690 -669 -693 0
-690 669 -693 0
-690 -669 693 0
690 669 693 0
-39 693 0
-690 672 -694 0
690 -672 -694 0
694 -672 -690 0
690 672 694 0
-43 -694 0
-695 624 -696 0
695 -624 -696 0
-695 -624 696 0
695 624 696 0
-23 -696 0
695 -619 -697 0
-695 619 -697 0
697 -695 -619 0
697 695 619 0
-26 697 0
695 -669 -698 0
-695 669 -698 0
-695 -669 698 0
695 669 698 0
-39 698 0
-695 672 -699 0
695 -672 -699 0
699 -672 -695 0
695 672 699 0
-43 -699 0
-10 700 -701 0
10 -700 -701 0
-10 -700 701 0
10 700 701 0
-23 -701 0
10 -702 -703 0
-10 702 -703 0
703 -10 -702 0
703 10 702 0
-26 703 0
-700 704 0
-702 704 0
-705 704 0
-706 704 0
-707 704 0
-708 704 0
-709 704 0
-710 704 0
711 0
10 -704 -712 0
-10 704 -712 0
-10 -704 712 0
10 704 712 0
-39 712 0
700 713 0
702 713 0
705 713 0
706 713 0
707 713 0
708 713 0
709 713 0
710 713 0
-714 0
-10 713 -715 0
10 -713 -715 0
715 -713 -10 0
10 713 715 0
-43 -715 0
-716 702 -717 0
716 -702 -717 0
-716 -702 717 0
716 702 717 0
-23 -717 0
716 -705 -718 0
-716 705 -718 0
718 -716 -705 0
718 716 705 0
-26 718 0
-702 719 0
-705 719 0
-706 719 0
-707 719 0
-708 719 0
-709 719 0
-710 719 0
720 0
716 -719 -721 0
-716 719 -721 0
-716 -719 721 0
716 719 721 0
-39 721 0
702 722 0
705 722 0
706 722 0
707 722 0
708 722 0
709 722 0
710 722 0
-723 0
-716 722 -724 0
716 -722 -724 0
724 -722 -716 0
716 722 724 0
-43 -724 0
-725 705 -726 0
725 -705 -726 0
-725 -705 726 0
725 705 726 0
-23 -726 0
725 -706 -727 0
-725 706 -727 0
727 -725 -706 0
727 725 706 0
-26 727 0
-705 728 0
-706 728 0
-707 728 0
-708 728 0
-709 728 0
-710 728 0
729 0
725 -728 -730 0
-725 728 -730 0
-725 -728 730 0
725 728 730 0
-39 730 0
705 731 0
706 731 0
707 731 0
708 731 0
709 731 0
710 731 0
-732 0
-725 731 -733 0
725 -731 -733 0
733 -731 -725 0
725 731 733 0
-43 -733 0
-734 706 -735 0
734 -706 -735 0
-734 -706 735 0
734 706 735 0
-23 -735 0
734 -707 -736 0
-734 707 -736 0
736 -734 -707 0
736 734 707 0
-26 736 0
-706 737 0
-707 737 0
-708 737 0
-709 737 0
-710 737 0
706 707 708 709 710 -737 0
734 -737 -738 0
-734 737 -738 0
-734 -737 738 0
734 737 738 0
-39 738 0
706 739 0
707 739 0
708 739 0
709 739 0
710 739 0
-740 0
-734 739 -741 0
734 -739 -741 0
741 -739 -734 0
734 739 741 0
-43 -741 0
-742 707 -743 0
742 -707 -743 0
-742 -707 743 0
742 707 743 0
-23 -743 0
742 -708 -744 0
-742 708 -744 0
744 -742 -708 0
744 742 708 0
-26 744 0
-707 745 0
-708 745 0
-709 745 0
-710 745 0
707 708 709 710 -745 0
742 -745 -746 0
-742 745 -746 0
-742 -745 746 0
742 745 746 0
-39 746 0
707 747 0
708 747 0
709 747 0
710 747 0
-748 0
-742 747 -749 0
742 -747 -749 0
749 -747 -742 0
742 747 749 0
-43 -749 0
-750 708 -751 0
750 -708 -751 0
-750 -708 751 0
750 708 751 0
-23 -751 0
750 -709 -752 0
-750 709 -752 0
752 -750 -709 0
752 750 709 0
-26 752 0
750 -745 -753 0
-750 745 -753 0
-750 -745 753 0
750 745 753 0
-39 753 0
-750 747 -754 0
750 -747 -754 0
754 -747 -750 0
750 747 754 0
-43 -754 0
-755 709 -756 0
755 -709 -756 0
-755 -709 756 0
755 709 756 0
-23 -756 0
755 -710 -757 0
-755 710 -757 0
757 -755 -710 0
757 755 710 0
-26 757 0
755 -745 -758 0
-755 745 -758 0
-755 -745 758 0
755 745 758 0
-39 758 0
-755 747 -759 0
755 -747 -759 0
759 -747 -755 0
755 747 759 0
-43 -759 0
-760 710 -761 0
760 -710 -761 0
-760 -710 761 0
760 710 761 0
-23 -761 0
760 -707 -762 0
-760 707 -762 0
762 -760 -707 0
762 760 707 0
-26 762 0
760 -745 -763 0
-760 745 -763 0
-760 -745 763 0
760 745 763 0
-39 763 0
-760 747 -764 0
760 -747 -764 0
764 -747 -760 0
760 747 764 0
-43 -764 0
-11 765 -766 0
11 -765 -766 0
-11 -765 766 0
11 765 766 0
-23 -766 0
11 -765 -767 0
-11 765 -767 0
767 -11 -765 0
767 11 765 0
-26 767 0
-39 767 0
-43 767 0
-12 768 -769 0
12 -768 -769 0
-12 -768 769 0
12 768 769 0
-23 -769 0
12 -768 -770 0
-12 768 -770 0
770 -12 -768 0
770 12 768 0
-26 770 0
-39 770 0
-43 770 0
-13 771 -772 0
13 -771 -772 0
-13 -771 772 0
13 771 772 0
-23 -772 0
13 -771 -773 0
-13 771 -773 0
773 -13 -771 0
773 13 771 0
-26 773 0
-39 773 0
-43 773 0
-14 774 -775 0
14 -774 -775 0
-14 -774 775 0
14 774 775 0
-23 -775 0
14 -774 -776 0
-14 774 -776 0
776 -14 -774 0
776 14 774 0
-26 776 0
-39 776 0
-43 776 0
-15 777 -778 0
15 -777 -778 0
-15 -777 778 0
15 777 778 0
-23 -778 0
15 -777 -779 0
-15 777 -779 0
779 -15 -777 0
779 15 777 0
-26 779 0
-39 779 0
-43 779 0
-16 780 -781 0
16 -780 -781 0
-16 -780 781 0
16 780 781 0
-23 -781 0
16 -780 -782 0
-16 780 -782 0
782 -16 -780 0
782 16 780 0
-26 782 0
-39 782 0
-43 782 0
-17 783 -784 0
17 -783 -784 0
-17 -783 784 0
17 783 784 0
-23 -784 0
17 -783 -785 0
-17 783 -785 0
785 -17 -783 0
785 17 783 0
-26 785 0
-39 785 0
-43 785 0
-18 786 -787 0
18 -786 -787 0
-18 -786 787 0
18 786 787 0
-23 -787 0
18 -786 -788 0
-18 786 -788 0
788 -18 -786 0
788 18 786 0
-26 788 0
-39 788 0
-43 788 0
-19 789 -790 0
19 -789 -790 0
-19 -789 790 0
19 789 790 0
-23 -790 0
19 -789 -791 0
-19 789 -791 0
791 -19 -789 0
791 19 789 0
-26 791 0
-39 791 0
-43 791 0
-20 792 -793 0
20 -792 -793 0
-20 -792 793 0
20 792 793 0
-23 -793 0
20 -792 -794 0
-20 792 -794 0
794 -20 -792 0
794 20 792 0
-26 794 0
-39 794 0
-43 794 0
23 26 39 43 0
-23 -26 0
-23 -39 0
-23 -43 0
-26 -39 0
-26 -43 0
-39 -43 0
21 -795 0
-795 -24 0
-795 -36 0
-795 -35 0
34 -795 0
33 -795 0
32 -795 0
31 -795 0
30 -795 0
-795 -29 0
-795 -27 0
-795 -114 0
-795 -116 0
119 -795 0
-795 -120 0
121 -795 0
122 -795 0
-795 -123 0
-795 -124 0
176 -795 0
-795 -178 0
181 -795 0
182 -795 0
183 -795 0
184 -795 0
-795 -185 0
-795 -186 0
-795 -187 0
188 -795 0
-795 -189 0
265 -795 0
267 -795 0
270 -795 0
-795 -271 0
272 -795 0
273 -795 0
-795 -274 0
-795 -275 0
-795 -276 0
277 -795 0
-795 -278 0
354 -795 0
356 -795 0
-795 -359 0
360 -795 0
-795 -361 0
-795 -362 0
363 -795 0
364 -795 0
-795 -365 0
-795 -426 0
428 -795 0
431 -795 0
-795 -432 0
454 -795 0
-795 -456 0
459 -795 0
-795 -460 0
-795 -461 0
-795 -462 0
-795 -463 0
464 -795 0
465 -795 0
-795 -526 0
-795 -528 0
-795 -531 0
532 -795 0
-795 -533 0
-795 -534 0
535 -795 0
-795 -536 0
537 -795 0
538 -795 0
611 -795 0
613 -795 0
-795 -616 0
-795 -617 0
-795 -618 0
619 -795 0
-795 -620 0
-795 -621 0
-795 -622 0
623 -795 0
624 -795 0
700 -795 0
-795 -702 0
-795 -705 0
706 -795 0
707 -795 0
708 -795 0
709 -795 0
-795 -710 0
-795 -765 0
-795 -768 0
-795 -771 0
-795 -774 0
-795 -777 0
-795 -780 0
-795 -783 0
-795 -786 0
-795 -789 0
-795 -792 0
795 0
-796 0
-797 0
-798 0
-799 0
-800 0
-801 0
-802 0
-803 0
